NAME: syria40
TYPE: TSP
COMMENT: 40 Syrian Cities and Towns (Integer Cartesian Projection)
DIMENSION: 40
EDGE_WEIGHT_TYPE: EUC_2D
NODE_COORD_SECTION
1 129130 151380
2 213430 420210
3 171370 273240
4 175780 313180
5 79080 353170
6 514080 333590
7 400790 395260
8 574760 450240
9 88660 288900
10 156630 70930
11 110170 61550
12 163390 393060
13 328180 256000
14 591640 245440
15 622290 505030
16 295490 452810
17 186940 451140
18 204330 458780
19 251170 437000
20 301220 481470
21 111750 282060
22 94860 318140
23 92780 336140
24 205250 301140
25 134060 306530
26 173220 292640
27 167110 364440
28 131970 381330
29 140190 157220
30 109810 172440
31 165720 196750
32 172830 202530
33 162890 85500
34 171110 49390
35 545000 302000
36 592920 510080
37 714000 517750
38 335470 489110
39 394580 469720
40 507440 485140
EOF
